c defined variables: 4 9 13 18 22 27 31 35 36 37 38 42 46 51 55 59 64 68 72 73 74 78 82 86 87 88 89 93 97 101 105 109 113 114 118 119 120 124 128 132 133 134 138 142 146 147 148 149 153 157 161 162 163 164 168 172 173 174 178 182 186 187 188 192 196 197 198 202 206 207 208 212 216 220 224 228 232 236 240 241 242 243 247 251 255 259 263 267 271 275 276 277 281 285 289 290 291 292 296 300 304 308 312 313 317 318 319 323 339 344 348 352 353 354 355 359 363 367 368 369 370 374 378 379 380 384 388 392 393 394 398 408 414 418 419 420 423 424 426 427 428 429 432 433 434 435 438 439 440 441 444 445 448 449 452 453 456 457 458 459 460 461 464 
p cnf 1520 1707
a 373 383 366 362 391 377 397 413 401 407 58 62 77 67 81 54 49 92 34 96 404 417 326 343 266 262 270 280 303 347 288 274 21 25 45 16 41 30 12 1 6 387 358 322 311 307 316 337 331 334 351 223 250 219 205 215 211 201 185 195 191 50 7 26 2 3 17 63 8 227 231 246 235 254 295 239 299 284 258 123 104 127 137 100 141 85 71 108 112 152 177 167 156 117 131 145 181 160 171 0
e 5 10 11 14 15 19 20 23 24 28 29 32 33 39 40 43 44 47 48 52 53 56 57 60 61 65 66 69 70 75 76 79 80 83 84 90 91 94 95 98 99 102 103 106 107 110 111 115 116 121 122 125 126 129 130 135 136 139 140 143 144 150 151 154 155 158 159 165 166 169 170 175 176 179 180 183 184 189 190 193 194 199 200 203 204 209 210 213 214 217 218 221 222 225 226 229 230 233 234 237 238 244 245 248 249 252 253 256 257 260 261 264 265 268 269 272 273 278 279 282 283 286 287 293 294 297 298 301 302 305 306 309 310 314 315 320 321 324 325 328 329 330 332 333 335 336 340 341 342 345 346 349 350 356 357 360 361 364 365 371 372 375 376 381 382 385 386 389 390 395 396 399 400 402 403 405 406 410 411 412 415 416 421 422 425 430 431 436 437 442 443 446 447 450 451 454 455 462 463 4 9 13 18 22 27 31 35 36 37 38 42 46 51 55 59 64 68 72 73 74 78 82 86 87 88 89 93 97 101 105 109 113 114 118 119 120 124 128 132 133 134 138 142 146 147 148 149 153 157 161 162 163 164 168 172 173 174 178 182 186 187 188 192 196 197 198 202 206 207 208 212 216 220 224 228 232 236 240 241 242 243 247 251 255 259 263 267 271 275 276 277 281 285 289 290 291 292 296 300 304 308 312 313 317 318 319 323 339 344 348 352 353 354 355 359 363 367 368 369 370 374 378 379 380 384 388 392 393 394 398 408 414 418 419 420 423 424 426 427 428 429 432 433 434 435 438 439 440 441 444 445 448 449 452 453 456 457 458 459 460 461 464 1357 1358 1359 1360 1361 1362 1363 1364 1365 1366 1367 1368 1369 1370 1371 1372 1373 1374 1375 1376 1377 1378 1379 1380 1381 1382 1383 1384 1385 1386 1387 1388 1389 1390 1391 1392 1393 1394 1395 1396 1397 1398 1399 1400 1401 1402 1403 1404 1405 1406 1407 1408 1409 1410 1411 1412 1413 1414 1415 1416 1417 1418 1419 1420 1421 1422 1423 1424 1425 1426 1427 1428 1429 1430 1431 1432 1433 1434 1435 1436 1437 1438 1439 1440 1441 1442 1443 1444 1445 1446 1447 1448 1449 1450 1451 1452 1453 1454 1455 1456 1457 1458 1459 1460 1461 1462 1463 1464 1465 1466 1467 1468 1469 1470 1471 1472 1473 1474 1475 1476 1477 1478 1479 1480 1481 1482 1483 1484 1485 1486 1487 1488 1489 1490 1491 1492 1493 1494 1495 1496 1497 1498 1499 1500 1501 1502 1503 1504 1505 1506 1507 1508 1509 1510 1511 1512 1513 1514 1515 1516 1517 1518 1519 1520 0
d 327 26 17 0
d 409 401 404 0
d 338 331 334 0
1358 -4 0
-1358 4 0
1359 -9 0
-1359 9 0
-1362 -13 0
1362 13 0
1363 -18 0
-1363 18 0
1364 -22 0
-1364 22 0
1365 -27 0
-1365 27 0
-1368 -31 0
1368 31 0
-1357 -35 0
1357 35 0
-1357 -36 0
1357 36 0
1360 -37 0
-1360 37 0
-1369 -38 0
1369 38 0
-1372 -42 0
1372 42 0
-1375 -46 0
1375 46 0
1376 -51 0
-1376 51 0
1377 -55 0
-1377 55 0
1378 -59 0
-1378 59 0
1379 -64 0
-1379 64 0
-1382 -68 0
1382 68 0
1370 -72 0
-1370 72 0
1366 -73 0
-1366 73 0
-1383 -74 0
1383 74 0
-1386 -78 0
1386 78 0
-1389 -82 0
1389 82 0
-1357 -86 0
1357 86 0
-1357 -87 0
1357 87 0
1373 -88 0
-1373 88 0
1390 -89 0
-1390 89 0
-1393 -93 0
1393 93 0
-1396 -97 0
1396 97 0
1397 -101 0
-1397 101 0
1398 -105 0
-1398 105 0
1399 -109 0
-1399 109 0
-1357 -113 0
1357 113 0
1400 -114 0
-1400 114 0
1384 -118 0
-1384 118 0
1380 -119 0
-1380 119 0
-1401 -120 0
1401 120 0
-1404 -124 0
1404 124 0
-1407 -128 0
1407 128 0
1391 -132 0
-1391 132 0
1387 -133 0
-1387 133 0
-1408 -134 0
1408 134 0
-1411 -138 0
1411 138 0
-1414 -142 0
1414 142 0
-1357 -146 0
1357 146 0
-1357 -147 0
1357 147 0
1394 -148 0
-1394 148 0
1415 -149 0
-1415 149 0
1416 -153 0
-1416 153 0
1417 -157 0
-1417 157 0
1402 -161 0
-1402 161 0
-1357 -162 0
1357 162 0
-1357 -163 0
1357 163 0
1418 -164 0
-1418 164 0
-1421 -168 0
1421 168 0
1409 -172 0
-1409 172 0
1405 -173 0
-1405 173 0
-1422 -174 0
1422 174 0
-1425 -178 0
1425 178 0
-1428 -182 0
1428 182 0
1429 -186 0
-1429 186 0
1412 -187 0
-1412 187 0
-1430 -188 0
1430 188 0
1431 -192 0
-1431 192 0
1423 -196 0
-1423 196 0
1419 -197 0
-1419 197 0
-1432 -198 0
1432 198 0
-1435 -202 0
1435 202 0
1436 -206 0
-1436 206 0
1426 -207 0
-1426 207 0
-1437 -208 0
1437 208 0
1358 -212 0
-1358 212 0
1359 -216 0
-1359 216 0
-1440 -220 0
1440 220 0
1363 -224 0
-1363 224 0
1364 -228 0
-1364 228 0
1365 -232 0
-1365 232 0
-1443 -236 0
1443 236 0
-1357 -240 0
1357 240 0
-1357 -241 0
1357 241 0
1438 -242 0
-1438 242 0
1444 -243 0
-1444 243 0
-1447 -247 0
1447 247 0
-1450 -251 0
1450 251 0
1376 -255 0
-1376 255 0
1377 -259 0
-1377 259 0
1378 -263 0
-1378 263 0
1379 -267 0
-1379 267 0
-1453 -271 0
1453 271 0
1445 -275 0
-1445 275 0
1441 -276 0
-1441 276 0
-1454 -277 0
1454 277 0
-1457 -281 0
1457 281 0
-1460 -285 0
1460 285 0
-1357 -289 0
1357 289 0
-1357 -290 0
1357 290 0
1448 -291 0
-1448 291 0
1461 -292 0
-1461 292 0
1464 -296 0
-1464 296 0
-1467 -300 0
1467 300 0
1397 -304 0
-1397 304 0
1399 -308 0
-1399 308 0
-1357 -312 0
1357 312 0
-1357 -313 0
1357 313 0
1455 -317 0
-1455 317 0
1451 -318 0
-1451 318 0
-1468 -319 0
1468 319 0
-1471 -323 0
1471 323 0
1458 -339 0
-1458 339 0
-1474 -344 0
1474 344 0
-1477 -348 0
1477 348 0
-1357 -352 0
1357 352 0
-1357 -353 0
1357 353 0
1465 -354 0
-1465 354 0
1478 -355 0
-1478 355 0
1416 -359 0
-1416 359 0
1417 -363 0
-1417 363 0
1469 -367 0
-1469 367 0
-1357 -368 0
1357 368 0
-1357 -369 0
1357 369 0
1479 -370 0
-1479 370 0
1482 -374 0
-1482 374 0
1472 -378 0
-1472 378 0
1483 -379 0
-1483 379 0
-1484 -380 0
1484 380 0
-1487 -384 0
1487 384 0
-1490 -388 0
1490 388 0
1491 -392 0
-1491 392 0
1475 -393 0
-1475 393 0
-1492 -394 0
1492 394 0
1431 -398 0
-1431 398 0
1485 -408 0
-1485 408 0
-1495 -414 0
1495 414 0
1496 -418 0
-1496 418 0
1488 -419 0
-1488 419 0
-1497 -420 0
1497 420 0
1498 -423 0
-1498 423 0
1498 -424 0
-1498 424 0
-1357 -426 0
1357 426 0
1499 -427 0
-1499 427 0
-1357 -428 0
1357 428 0
1500 -429 0
-1500 429 0
-1357 -432 0
1357 432 0
1501 -433 0
-1501 433 0
-1357 -434 0
1357 434 0
1502 -435 0
-1502 435 0
-1357 -438 0
1357 438 0
1503 -439 0
-1503 439 0
-1357 -440 0
1357 440 0
1504 -441 0
-1504 441 0
-1506 -444 0
1506 444 0
-1508 -445 0
1508 445 0
-1510 -448 0
1510 448 0
-1512 -449 0
1512 449 0
-1515 -452 0
1515 452 0
-1518 -453 0
1518 453 0
1513 -456 0
-1513 456 0
1493 -457 0
-1493 457 0
-1519 -458 0
1519 458 0
1516 -459 0
-1516 459 0
1433 -460 0
-1433 460 0
-1520 -461 0
1520 461 0
1357 -464 0
-1357 464 0
464 0
-464 422 463 0
-422 416 -421 0
-416 412 -415 0
-412 406 -411 0
-406 403 -405 0
-403 400 -402 0
-400 396 -399 0
-396 390 -395 0
-390 386 -389 0
-386 382 -385 0
-382 376 -381 0
-376 372 -375 0
-372 365 -371 0
-365 361 -364 0
-361 357 -360 0
-357 350 -356 0
-350 346 -349 0
-346 342 -345 0
-342 336 -341 0
-336 333 -335 0
-333 330 -332 0
-330 325 -329 0
-325 321 -324 0
-321 315 -320 0
-315 310 -314 0
-310 306 -309 0
-306 302 -305 0
-302 298 -301 0
-298 294 -297 0
-294 287 -293 0
-287 283 -286 0
-283 279 -282 0
-279 273 -278 0
-273 269 -272 0
-269 265 -268 0
-265 261 -264 0
-261 257 -260 0
-257 253 -256 0
-253 249 -252 0
-249 245 -248 0
-245 238 -244 0
-238 234 -237 0
-234 230 -233 0
-230 226 -229 0
-226 222 -225 0
-222 218 -221 0
-218 214 -217 0
-214 210 -213 0
-210 204 -209 0
-204 200 -203 0
-200 194 -199 0
-194 190 -193 0
-190 184 -189 0
-184 180 -183 0
-180 176 -179 0
-176 170 -175 0
-170 166 -169 0
-166 159 -165 0
-159 155 -158 0
-155 151 -154 0
-151 144 -150 0
-144 140 -143 0
-140 136 -139 0
-136 130 -135 0
-130 126 -129 0
-126 122 -125 0
-122 116 -121 0
-116 111 -115 0
-111 107 -110 0
-107 103 -106 0
-103 99 -102 0
-99 95 -98 0
-95 91 -94 0
-91 84 -90 0
-84 80 -83 0
-80 76 -79 0
-76 70 -75 0
-70 66 -69 0
-66 61 -65 0
-61 57 -60 0
-57 53 -56 0
-53 48 -52 0
-48 44 -47 0
-44 40 -43 0
-40 33 -39 0
-33 29 -32 0
-29 24 -28 0
-24 20 -23 0
-20 15 -19 0
-15 11 -14 0
-11 -5 -10 0
1 4 5 0
-1 -4 5 0
-2 -3 4 0
-4 2 0
-4 3 0
6 9 10 0
-6 -9 10 0
-7 -8 9 0
-9 7 0
-9 8 0
12 -13 14 0
-12 13 14 0
-13 -1 6 0
-13 1 -6 0
1 6 13 0
-1 -6 13 0
16 18 19 0
-16 -18 19 0
-2 -17 18 0
-18 2 0
-18 17 0
21 22 23 0
-21 -22 23 0
-7 -3 22 0
-22 7 0
-22 3 0
25 27 28 0
-25 -27 28 0
-26 -8 27 0
-27 26 0
-27 8 0
30 -31 32 0
-30 31 32 0
-31 -21 25 0
-31 21 -25 0
21 25 31 0
-21 -25 31 0
34 38 39 0
-34 -38 39 0
-36 37 38 0
36 -37 38 0
-36 -37 38 0
-12 -35 36 0
-2 2 35 0
-1 -6 37 0
-38 36 37 0
-36 12 0
-36 35 0
-35 2 0
-35 -2 0
-37 1 0
-37 6 0
41 -42 43 0
-41 42 43 0
-42 -30 34 0
-42 30 -34 0
30 34 42 0
-30 -34 42 0
45 -46 47 0
-45 46 47 0
-46 -16 41 0
-46 16 -41 0
16 41 46 0
-16 -41 46 0
49 51 52 0
-49 -51 52 0
-2 -50 51 0
-51 2 0
-51 50 0
54 55 56 0
-54 -55 56 0
-7 -17 55 0
-55 7 0
-55 17 0
58 59 60 0
-58 -59 60 0
-26 -3 59 0
-59 26 0
-59 3 0
62 64 65 0
-62 -64 65 0
-63 -8 64 0
-64 63 0
-64 8 0
67 -68 69 0
-67 68 69 0
-68 -58 62 0
-68 58 -62 0
58 62 68 0
-58 -62 68 0
71 74 75 0
-71 -74 75 0
-72 73 74 0
72 -73 74 0
-72 -73 74 0
-30 -34 72 0
-21 -25 73 0
-74 72 73 0
-72 30 0
-72 34 0
-73 21 0
-73 25 0
77 -78 79 0
-77 78 79 0
-78 -67 71 0
-78 67 -71 0
67 71 78 0
-67 -71 78 0
81 -82 83 0
-81 82 83 0
-82 -54 77 0
-82 54 -77 0
54 77 82 0
-54 -77 82 0
85 89 90 0
-85 -89 90 0
-87 88 89 0
87 -88 89 0
-87 -88 89 0
-45 -86 87 0
-2 2 86 0
-16 -41 88 0
-89 87 88 0
-87 45 0
-87 86 0
-86 2 0
-86 -2 0
-88 16 0
-88 41 0
92 -93 94 0
-92 93 94 0
-93 -81 85 0
-93 81 -85 0
81 85 93 0
-81 -85 93 0
96 -97 98 0
-96 97 98 0
-97 -49 92 0
-97 49 -92 0
49 92 97 0
-49 -92 97 0
100 101 102 0
-100 -101 102 0
-7 -50 101 0
-101 7 0
-101 50 0
104 105 106 0
-104 -105 106 0
-26 -17 105 0
-105 26 0
-105 17 0
108 109 110 0
-108 -109 110 0
-63 -3 109 0
-109 63 0
-109 3 0
112 -114 115 0
-112 114 115 0
-114 -108 113 0
-114 108 -113 0
-113 2 0
-113 -2 0
-2 2 113 0
108 113 114 0
-108 -113 114 0
-2 2 113 0
-113 2 0
-113 -2 0
117 120 121 0
-117 -120 121 0
-118 119 120 0
118 -119 120 0
-118 -119 120 0
-67 -71 118 0
-58 -62 119 0
-120 118 119 0
-118 67 0
-118 71 0
-119 58 0
-119 62 0
123 -124 125 0
-123 124 125 0
-124 -112 117 0
-124 112 -117 0
112 117 124 0
-112 -117 124 0
127 -128 129 0
-127 128 129 0
-128 -104 123 0
-128 104 -123 0
104 123 128 0
-104 -123 128 0
131 134 135 0
-131 -134 135 0
-132 133 134 0
132 -133 134 0
-132 -133 134 0
-81 -85 132 0
-54 -77 133 0
-134 132 133 0
-132 81 0
-132 85 0
-133 54 0
-133 77 0
137 -138 139 0
-137 138 139 0
-138 -127 131 0
-138 127 -131 0
127 131 138 0
-127 -131 138 0
141 -142 143 0
-141 142 143 0
-142 -100 137 0
-142 100 -137 0
100 137 142 0
-100 -137 142 0
145 149 150 0
-145 -149 150 0
-147 148 149 0
147 -148 149 0
-147 -148 149 0
-96 -146 147 0
-2 2 146 0
-49 -92 148 0
-149 147 148 0
-147 96 0
-147 146 0
-146 2 0
-146 -2 0
-148 49 0
-148 92 0
152 153 154 0
-152 -153 154 0
-26 -50 153 0
-153 26 0
-153 50 0
156 157 158 0
-156 -157 158 0
-63 -17 157 0
-157 63 0
-157 17 0
160 164 165 0
-160 -164 165 0
-161 163 164 0
161 -163 164 0
-161 -163 164 0
-112 -117 161 0
-108 -162 163 0
-2 2 162 0
-164 161 163 0
-161 112 0
-161 117 0
-163 108 0
-163 162 0
-162 2 0
-162 -2 0
167 -168 169 0
-167 168 169 0
-168 -156 160 0
-168 156 -160 0
156 160 168 0
-156 -160 168 0
171 174 175 0
-171 -174 175 0
-172 173 174 0
172 -173 174 0
-172 -173 174 0
-127 -131 172 0
-104 -123 173 0
-174 172 173 0
-172 127 0
-172 131 0
-173 104 0
-173 123 0
177 -178 179 0
-177 178 179 0
-178 -167 171 0
-178 167 -171 0
167 171 178 0
-167 -171 178 0
181 -182 183 0
-181 182 183 0
-182 -152 177 0
-182 152 -177 0
152 177 182 0
-152 -177 182 0
185 188 189 0
-185 -188 189 0
-186 187 188 0
186 -187 188 0
-186 -187 188 0
-141 -145 186 0
-100 -137 187 0
-188 186 187 0
-186 141 0
-186 145 0
-187 100 0
-187 137 0
191 192 193 0
-191 -192 193 0
-63 -50 192 0
-192 63 0
-192 50 0
195 198 199 0
-195 -198 199 0
-196 197 198 0
196 -197 198 0
-196 -197 198 0
-167 -171 196 0
-156 -160 197 0
-198 196 197 0
-196 167 0
-196 171 0
-197 156 0
-197 160 0
201 -202 203 0
-201 202 203 0
-202 -191 195 0
-202 191 -195 0
191 195 202 0
-191 -195 202 0
205 208 209 0
-205 -208 209 0
-206 207 208 0
206 -207 208 0
-206 -207 208 0
-181 -185 206 0
-152 -177 207 0
-208 206 207 0
-206 181 0
-206 185 0
-207 152 0
-207 177 0
211 212 213 0
-211 -212 213 0
-2 -3 212 0
-212 2 0
-212 3 0
215 216 217 0
-215 -216 217 0
-7 -8 216 0
-216 7 0
-216 8 0
219 -220 221 0
-219 220 221 0
-220 -211 215 0
-220 211 -215 0
211 215 220 0
-211 -215 220 0
223 224 225 0
-223 -224 225 0
-2 -17 224 0
-224 2 0
-224 17 0
227 228 229 0
-227 -228 229 0
-7 -3 228 0
-228 7 0
-228 3 0
231 232 233 0
-231 -232 233 0
-26 -8 232 0
-232 26 0
-232 8 0
235 -236 237 0
-235 236 237 0
-236 -227 231 0
-236 227 -231 0
227 231 236 0
-227 -231 236 0
239 243 244 0
-239 -243 244 0
-241 242 243 0
241 -242 243 0
-241 -242 243 0
-219 -240 241 0
-2 2 240 0
-211 -215 242 0
-243 241 242 0
-241 219 0
-241 240 0
-240 2 0
-240 -2 0
-242 211 0
-242 215 0
246 -247 248 0
-246 247 248 0
-247 -235 239 0
-247 235 -239 0
235 239 247 0
-235 -239 247 0
250 -251 252 0
-250 251 252 0
-251 -223 246 0
-251 223 -246 0
223 246 251 0
-223 -246 251 0
254 255 256 0
-254 -255 256 0
-2 -50 255 0
-255 2 0
-255 50 0
258 259 260 0
-258 -259 260 0
-7 -17 259 0
-259 7 0
-259 17 0
262 263 264 0
-262 -263 264 0
-26 -3 263 0
-263 26 0
-263 3 0
266 267 268 0
-266 -267 268 0
-63 -8 267 0
-267 63 0
-267 8 0
270 -271 272 0
-270 271 272 0
-271 -262 266 0
-271 262 -266 0
262 266 271 0
-262 -266 271 0
274 277 278 0
-274 -277 278 0
-275 276 277 0
275 -276 277 0
-275 -276 277 0
-235 -239 275 0
-227 -231 276 0
-277 275 276 0
-275 235 0
-275 239 0
-276 227 0
-276 231 0
280 -281 282 0
-280 281 282 0
-281 -270 274 0
-281 270 -274 0
270 274 281 0
-270 -274 281 0
284 -285 286 0
-284 285 286 0
-285 -258 280 0
-285 258 -280 0
258 280 285 0
-258 -280 285 0
288 292 293 0
-288 -292 293 0
-290 291 292 0
290 -291 292 0
-290 -291 292 0
-250 -289 290 0
-2 2 289 0
-223 -246 291 0
-292 290 291 0
-290 250 0
-290 289 0
-289 2 0
-289 -2 0
-291 223 0
-291 246 0
295 -296 297 0
-295 296 297 0
-296 -284 288 0
-296 284 -288 0
284 288 296 0
-284 -288 296 0
299 -300 301 0
-299 300 301 0
-300 -254 295 0
-300 254 -295 0
254 295 300 0
-254 -295 300 0
303 304 305 0
-303 -304 305 0
-7 -50 304 0
-304 7 0
-304 50 0
307 308 309 0
-307 -308 309 0
-63 -3 308 0
-308 63 0
-308 3 0
311 -313 314 0
-311 313 314 0
-313 307 0
-313 312 0
-312 2 0
-312 -2 0
-307 -312 313 0
-2 2 312 0
316 319 320 0
-316 -319 320 0
-317 318 319 0
317 -318 319 0
-317 -318 319 0
-270 -274 317 0
-262 -266 318 0
-319 317 318 0
-317 270 0
-317 274 0
-318 262 0
-318 266 0
322 -323 324 0
-322 323 324 0
-323 -311 316 0
-323 311 -316 0
311 316 323 0
-311 -316 323 0
326 -328 329 0
-326 328 329 0
-328 -327 322 0
-328 327 -322 0
327 322 328 0
-327 -322 328 0
331 284 332 0
-331 -284 332 0
334 288 335 0
-334 -288 335 0
337 340 341 0
-337 -340 341 0
-338 339 340 0
338 -339 340 0
-338 -339 340 0
-258 -280 339 0
-340 338 339 0
-339 258 0
-339 280 0
343 -344 345 0
-343 344 345 0
-344 -326 337 0
-344 326 -337 0
326 337 344 0
-326 -337 344 0
347 -348 349 0
-347 348 349 0
-348 -303 343 0
-348 303 -343 0
303 343 348 0
-303 -343 348 0
351 355 356 0
-351 -355 356 0
-353 354 355 0
353 -354 355 0
-353 -354 355 0
-299 -352 353 0
-2 2 352 0
-254 -295 354 0
-355 353 354 0
-353 299 0
-353 352 0
-352 2 0
-352 -2 0
-354 254 0
-354 295 0
358 359 360 0
-358 -359 360 0
-26 -50 359 0
-359 26 0
-359 50 0
362 363 364 0
-362 -363 364 0
-63 -17 363 0
-363 63 0
-363 17 0
366 370 371 0
-366 -370 371 0
-367 369 370 0
367 -369 370 0
-367 -369 370 0
-311 -316 367 0
-307 -368 369 0
-2 2 368 0
-370 367 369 0
-367 311 0
-367 316 0
-369 307 0
-369 368 0
-368 2 0
-368 -2 0
373 -374 375 0
-373 374 375 0
-374 -362 366 0
-374 362 -366 0
362 366 374 0
-362 -366 374 0
377 380 381 0
-377 -380 381 0
-378 379 380 0
378 -379 380 0
-378 -379 380 0
-326 -337 378 0
-327 -322 379 0
-380 378 379 0
-378 326 0
-378 337 0
-379 327 0
-379 322 0
383 -384 385 0
-383 384 385 0
-384 -373 377 0
-384 373 -377 0
373 377 384 0
-373 -377 384 0
387 -388 389 0
-387 388 389 0
-388 -358 383 0
-388 358 -383 0
358 383 388 0
-358 -383 388 0
391 394 395 0
-391 -394 395 0
-392 393 394 0
392 -393 394 0
-392 -393 394 0
-347 -351 392 0
-303 -343 393 0
-394 392 393 0
-392 347 0
-392 351 0
-393 303 0
-393 343 0
397 398 399 0
-397 -398 399 0
-63 -50 398 0
-398 63 0
-398 50 0
401 362 402 0
-401 -362 402 0
404 366 405 0
-404 -366 405 0
407 410 411 0
-407 -410 411 0
-408 409 410 0
408 -409 410 0
-408 -409 410 0
-373 -377 408 0
-410 408 409 0
-408 373 0
-408 377 0
413 -414 415 0
-413 414 415 0
-414 -397 407 0
-414 397 -407 0
397 407 414 0
-397 -407 414 0
417 420 421 0
-417 -420 421 0
-418 419 420 0
418 -419 420 0
-418 -419 420 0
-387 -391 418 0
-358 -383 419 0
-420 418 419 0
-418 387 0
-418 391 0
-419 358 0
-419 383 0
-463 455 0
-463 462 0
-455 451 0
-455 454 0
-451 447 0
-451 450 0
-447 443 0
-447 446 0
-443 437 0
-443 442 0
-437 431 0
-437 436 0
-431 425 0
-431 430 0
-425 -423 424 0
-425 423 -424 0
-423 2 0
-423 8 0
-424 2 0
-424 8 0
-2 -8 423 0
-2 -8 424 0
-430 427 -429 0
-430 -427 429 0
219 426 427 0
-219 -426 427 0
-2 2 426 0
-426 2 0
-426 -2 0
12 428 429 0
-12 -428 429 0
-2 2 428 0
-428 2 0
-428 -2 0
-427 -219 426 0
-427 219 -426 0
-426 2 0
-426 -2 0
-2 2 426 0
-429 -12 428 0
-429 12 -428 0
-428 2 0
-428 -2 0
-2 2 428 0
-436 433 -435 0
-436 -433 435 0
250 432 433 0
-250 -432 433 0
-2 2 432 0
-432 2 0
-432 -2 0
45 434 435 0
-45 -434 435 0
-2 2 434 0
-434 2 0
-434 -2 0
-433 -250 432 0
-433 250 -432 0
-432 2 0
-432 -2 0
-2 2 432 0
-435 -45 434 0
-435 45 -434 0
-434 2 0
-434 -2 0
-2 2 434 0
-442 439 -441 0
-442 -439 441 0
299 438 439 0
-299 -438 439 0
-2 2 438 0
-438 2 0
-438 -2 0
96 440 441 0
-96 -440 441 0
-2 2 440 0
-440 2 0
-440 -2 0
-439 -299 438 0
-439 299 -438 0
-438 2 0
-438 -2 0
-2 2 438 0
-441 -96 440 0
-441 96 -440 0
-440 2 0
-440 -2 0
-2 2 440 0
-446 444 -445 0
-446 -444 445 0
347 351 444 0
-347 -351 444 0
141 145 445 0
-141 -145 445 0
-444 -347 351 0
-444 347 -351 0
-445 -141 145 0
-445 141 -145 0
-450 448 -449 0
-450 -448 449 0
387 391 448 0
-387 -391 448 0
181 185 449 0
-181 -185 449 0
-448 -387 391 0
-448 387 -391 0
-449 -181 185 0
-449 181 -185 0
-454 452 -453 0
-454 -452 453 0
413 417 452 0
-413 -417 452 0
201 205 453 0
-201 -205 453 0
-452 -413 417 0
-452 413 -417 0
-453 -201 205 0
-453 201 -205 0
-462 -458 461 0
-462 458 -461 0
-458 456 457 0
-456 413 0
-456 417 0
-457 397 0
-457 407 0
-461 459 460 0
-459 201 0
-459 205 0
-460 191 0
-460 195 0
-456 457 458 0
456 -457 458 0
-456 -457 458 0
-413 -417 456 0
-397 -407 457 0
-459 460 461 0
459 -460 461 0
-459 -460 461 0
-201 -205 459 0
-191 -195 460 0
1357 0
2 -1358 0
3 -1358 0
-2 -3 1358 0
7 -1359 0
8 -1359 0
-7 -8 1359 0
1 -1360 0
6 -1360 0
-1 -6 1360 0
-1 -1361 0
-6 -1361 0
1 6 1361 0
-1360 -1362 0
-1361 -1362 0
1360 1361 1362 0
2 -1363 0
17 -1363 0
-2 -17 1363 0
7 -1364 0
3 -1364 0
-7 -3 1364 0
26 -1365 0
8 -1365 0
-26 -8 1365 0
21 -1366 0
25 -1366 0
-21 -25 1366 0
-21 -1367 0
-25 -1367 0
21 25 1367 0
-1366 -1368 0
-1367 -1368 0
1366 1367 1368 0
-36 -1369 0
-37 -1369 0
36 37 1369 0
34 -1370 0
30 -1370 0
-34 -30 1370 0
-34 -1371 0
-30 -1371 0
34 30 1371 0
-1370 -1372 0
-1371 -1372 0
1370 1371 1372 0
16 -1373 0
41 -1373 0
-16 -41 1373 0
-16 -1374 0
-41 -1374 0
16 41 1374 0
-1373 -1375 0
-1374 -1375 0
1373 1374 1375 0
50 -1376 0
2 -1376 0
-50 -2 1376 0
7 -1377 0
17 -1377 0
-7 -17 1377 0
26 -1378 0
3 -1378 0
-26 -3 1378 0
63 -1379 0
8 -1379 0
-63 -8 1379 0
58 -1380 0
62 -1380 0
-58 -62 1380 0
-58 -1381 0
-62 -1381 0
58 62 1381 0
-1380 -1382 0
-1381 -1382 0
1380 1381 1382 0
-72 -1383 0
-73 -1383 0
72 73 1383 0
67 -1384 0
71 -1384 0
-67 -71 1384 0
-67 -1385 0
-71 -1385 0
67 71 1385 0
-1384 -1386 0
-1385 -1386 0
1384 1385 1386 0
77 -1387 0
54 -1387 0
-77 -54 1387 0
-77 -1388 0
-54 -1388 0
77 54 1388 0
-1387 -1389 0
-1388 -1389 0
1387 1388 1389 0
-87 -1390 0
88 -1390 0
87 -88 1390 0
81 -1391 0
85 -1391 0
-81 -85 1391 0
-81 -1392 0
-85 -1392 0
81 85 1392 0
-1391 -1393 0
-1392 -1393 0
1391 1392 1393 0
49 -1394 0
92 -1394 0
-49 -92 1394 0
-49 -1395 0
-92 -1395 0
49 92 1395 0
-1394 -1396 0
-1395 -1396 0
1394 1395 1396 0
50 -1397 0
7 -1397 0
-50 -7 1397 0
26 -1398 0
17 -1398 0
-26 -17 1398 0
3 -1399 0
63 -1399 0
-3 -63 1399 0
-108 -1400 0
-113 -1400 0
108 113 1400 0
-118 -1401 0
-119 -1401 0
118 119 1401 0
112 -1402 0
117 -1402 0
-112 -117 1402 0
-112 -1403 0
-117 -1403 0
112 117 1403 0
-1402 -1404 0
-1403 -1404 0
1402 1403 1404 0
123 -1405 0
104 -1405 0
-123 -104 1405 0
-123 -1406 0
-104 -1406 0
123 104 1406 0
-1405 -1407 0
-1406 -1407 0
1405 1406 1407 0
-132 -1408 0
-133 -1408 0
132 133 1408 0
127 -1409 0
131 -1409 0
-127 -131 1409 0
-127 -1410 0
-131 -1410 0
127 131 1410 0
-1409 -1411 0
-1410 -1411 0
1409 1410 1411 0
137 -1412 0
100 -1412 0
-137 -100 1412 0
-137 -1413 0
-100 -1413 0
137 100 1413 0
-1412 -1414 0
-1413 -1414 0
1412 1413 1414 0
-147 -1415 0
148 -1415 0
147 -148 1415 0
50 -1416 0
26 -1416 0
-50 -26 1416 0
17 -1417 0
63 -1417 0
-17 -63 1417 0
161 -1418 0
-163 -1418 0
-161 163 1418 0
156 -1419 0
160 -1419 0
-156 -160 1419 0
-156 -1420 0
-160 -1420 0
156 160 1420 0
-1419 -1421 0
-1420 -1421 0
1419 1420 1421 0
-172 -1422 0
-173 -1422 0
172 173 1422 0
167 -1423 0
171 -1423 0
-167 -171 1423 0
-167 -1424 0
-171 -1424 0
167 171 1424 0
-1423 -1425 0
-1424 -1425 0
1423 1424 1425 0
152 -1426 0
177 -1426 0
-152 -177 1426 0
-152 -1427 0
-177 -1427 0
152 177 1427 0
-1426 -1428 0
-1427 -1428 0
1426 1427 1428 0
141 -1429 0
145 -1429 0
-141 -145 1429 0
-186 -1430 0
-187 -1430 0
186 187 1430 0
50 -1431 0
63 -1431 0
-50 -63 1431 0
-196 -1432 0
-197 -1432 0
196 197 1432 0
195 -1433 0
191 -1433 0
-195 -191 1433 0
-195 -1434 0
-191 -1434 0
195 191 1434 0
-1433 -1435 0
-1434 -1435 0
1433 1434 1435 0
185 -1436 0
181 -1436 0
-185 -181 1436 0
-206 -1437 0
-207 -1437 0
206 207 1437 0
215 -1438 0
211 -1438 0
-215 -211 1438 0
-215 -1439 0
-211 -1439 0
215 211 1439 0
-1438 -1440 0
-1439 -1440 0
1438 1439 1440 0
227 -1441 0
231 -1441 0
-227 -231 1441 0
-227 -1442 0
-231 -1442 0
227 231 1442 0
-1441 -1443 0
-1442 -1443 0
1441 1442 1443 0
-241 -1444 0
242 -1444 0
241 -242 1444 0
235 -1445 0
239 -1445 0
-235 -239 1445 0
-235 -1446 0
-239 -1446 0
235 239 1446 0
-1445 -1447 0
-1446 -1447 0
1445 1446 1447 0
223 -1448 0
246 -1448 0
-223 -246 1448 0
-223 -1449 0
-246 -1449 0
223 246 1449 0
-1448 -1450 0
-1449 -1450 0
1448 1449 1450 0
266 -1451 0
262 -1451 0
-266 -262 1451 0
-266 -1452 0
-262 -1452 0
266 262 1452 0
-1451 -1453 0
-1452 -1453 0
1451 1452 1453 0
-275 -1454 0
-276 -1454 0
275 276 1454 0
270 -1455 0
274 -1455 0
-270 -274 1455 0
-270 -1456 0
-274 -1456 0
270 274 1456 0
-1455 -1457 0
-1456 -1457 0
1455 1456 1457 0
280 -1458 0
258 -1458 0
-280 -258 1458 0
-280 -1459 0
-258 -1459 0
280 258 1459 0
-1458 -1460 0
-1459 -1460 0
1458 1459 1460 0
-290 -1461 0
291 -1461 0
290 -291 1461 0
288 -1462 0
-284 -1462 0
-288 284 1462 0
-288 -1463 0
284 -1463 0
288 -284 1463 0
-1462 -1464 0
-1463 -1464 0
1462 1463 1464 0
254 -1465 0
295 -1465 0
-254 -295 1465 0
-254 -1466 0
-295 -1466 0
254 295 1466 0
-1465 -1467 0
-1466 -1467 0
1465 1466 1467 0
-317 -1468 0
-318 -1468 0
317 318 1468 0
311 -1469 0
316 -1469 0
-311 -316 1469 0
-311 -1470 0
-316 -1470 0
311 316 1470 0
-1469 -1471 0
-1470 -1471 0
1469 1470 1471 0
326 -1472 0
337 -1472 0
-326 -337 1472 0
-326 -1473 0
-337 -1473 0
326 337 1473 0
-1472 -1474 0
-1473 -1474 0
1472 1473 1474 0
343 -1475 0
303 -1475 0
-343 -303 1475 0
-343 -1476 0
-303 -1476 0
343 303 1476 0
-1475 -1477 0
-1476 -1477 0
1475 1476 1477 0
-353 -1478 0
354 -1478 0
353 -354 1478 0
367 -1479 0
-369 -1479 0
-367 369 1479 0
366 -1480 0
-362 -1480 0
-366 362 1480 0
-366 -1481 0
362 -1481 0
366 -362 1481 0
-1480 -1482 0
-1481 -1482 0
1480 1481 1482 0
322 -1483 0
328 -1483 0
-322 -328 1483 0
-378 -1484 0
-379 -1484 0
378 379 1484 0
373 -1485 0
377 -1485 0
-373 -377 1485 0
-373 -1486 0
-377 -1486 0
373 377 1486 0
-1485 -1487 0
-1486 -1487 0
1485 1486 1487 0
383 -1488 0
358 -1488 0
-383 -358 1488 0
-383 -1489 0
-358 -1489 0
383 358 1489 0
-1488 -1490 0
-1489 -1490 0
1488 1489 1490 0
347 -1491 0
351 -1491 0
-347 -351 1491 0
-392 -1492 0
-393 -1492 0
392 393 1492 0
397 -1493 0
407 -1493 0
-397 -407 1493 0
-397 -1494 0
-407 -1494 0
397 407 1494 0
-1493 -1495 0
-1494 -1495 0
1493 1494 1495 0
391 -1496 0
387 -1496 0
-391 -387 1496 0
-418 -1497 0
-419 -1497 0
418 419 1497 0
2 -1498 0
8 -1498 0
-2 -8 1498 0
-219 -1499 0
-426 -1499 0
219 426 1499 0
-12 -1500 0
-428 -1500 0
12 428 1500 0
-250 -1501 0
-432 -1501 0
250 432 1501 0
-45 -1502 0
-434 -1502 0
45 434 1502 0
-299 -1503 0
-438 -1503 0
299 438 1503 0
-96 -1504 0
-440 -1504 0
96 440 1504 0
-347 -1505 0
-351 -1505 0
347 351 1505 0
-1491 -1506 0
-1505 -1506 0
1491 1505 1506 0
-141 -1507 0
-145 -1507 0
141 145 1507 0
-1429 -1508 0
-1507 -1508 0
1429 1507 1508 0
-391 -1509 0
-387 -1509 0
391 387 1509 0
-1496 -1510 0
-1509 -1510 0
1496 1509 1510 0
-185 -1511 0
-181 -1511 0
185 181 1511 0
-1436 -1512 0
-1511 -1512 0
1436 1511 1512 0
413 -1513 0
417 -1513 0
-413 -417 1513 0
-413 -1514 0
-417 -1514 0
413 417 1514 0
-1513 -1515 0
-1514 -1515 0
1513 1514 1515 0
205 -1516 0
201 -1516 0
-205 -201 1516 0
-205 -1517 0
-201 -1517 0
205 201 1517 0
-1516 -1518 0
-1517 -1518 0
1516 1517 1518 0
-456 -1519 0
-457 -1519 0
456 457 1519 0
-459 -1520 0
-460 -1520 0
459 460 1520 0
